119 48 011 1
1
295 113 1
243 114 1
205 115 1
185 116 1
235 117 1
259 118 1
273 119 1
238 108 1
208 109 1
260 110 1
285 111 1
312 112 1
244 113 1
323 114 1
217 115 1
231 116 1
254 117 1
213 118 1
220 119 1
247 108 1
218 109 1
253 110 1
204 111 1
189 112 1
268 113 1
251 114 1
204 115 1
244 116 1
223 117 1
282 118 1
269 119 1
315 108 1
216 109 1
222 110 1
226 111 1
231 112 1
205 113 1
206 114 1
266 115 1
199 116 1
211 117 1
262 118 1
275 119 1
259 108 1
319 109 1
287 110 1
207 111 1
239 112 1
1
1
1
1
1
1
1
1
1
1
1
1
1
1
1
1
1
1
1
1
1
1
1
1
1
1
1
1
1
1
1
1
1
1
1
1
1
1
1
1
1
1
1
1
1
1
1
1
1
1
1
1
1
1
1
1
1
1
1 9 237 21 246 33 314 45 258
1 10 207 22 217 34 215 46 318
1 11 259 23 252 35 221 47 286
1 12 284 24 203 36 225 48 206
1 13 311 25 188 37 230 49 238
1 2 294 14 243 26 267 38 204
1 3 242 15 322 27 250 39 205
1 4 204 16 216 28 203 40 265
1 5 184 17 230 29 243 41 198
1 6 234 18 253 30 222 42 210
1 7 258 19 212 31 281 43 261
1 8 272 20 219 32 268 44 274
